NAME : Malawi
COMMENT : Malwai TeaTracker
TYPE : CVRP
DIMENSION : 32
EDGE_WEIGHT_TYPE : EUC_2D 
CAPACITY : 100
NODE_COORD_SECTION
 1 42.0 9.0
 2 61.0 62.0
 3 9.0 97.0
 4 80.0 55.0
 5 93.0 3.0
 6 50.0 93.0
 7 98.0 14.0
 8 5.0 42.0
 9 57.0 69.0
 10 23.0 15.0
 11 82.0 76.0
 12 50.0 5.0
 13 96.0 44.0
 14 13.0 7.0
 15 49.0 8.0
 16 58.0 30.0
 17 29.0 89.0
 18 14.0 24.0
 19 84.0 39.0
 20 3.0 82.0
 21 2.0 39.0
 22 98.0 52.0
 23 5.0 10.0
 24 61.0 59.0
 25 84.0 25.0
 26 88.0 51.0
 27 1.0 65.0
 28 19.0 32.0
 29 91.0 2.0
 30 85.0 60.0
 31 20.0 70.0
 32 98.0 5.0
DEMAND_SECTION
1 8.0
2 24.0
3 24.0
4 2.0
5 24.0
6 8.0
7 12.0
8 4.0
9 20.0
10 15.0
11 0.0
12 21.0
13 19.0
14 19.0
15 6.0
16 12.0
17 7.0
18 6.0
19 16.0
20 8.0
21 16.0
22 21.0
23 14.0
24 3.0
25 16.0
26 18.0
27 22.0
28 1.0
29 19.0
30 14.0
31 2.0
32 9.0
DEPOT_SECTION
1
-1
EOF
